(set-logic QF_LRA)
(declare-fun X0 () Real )
(declare-fun Y0 () Real )
(declare-fun X1 () Real )
(declare-fun Y1 () Real )
(declare-fun X2 () Real )
(declare-fun Y2 () Real )
(declare-fun X3 () Real )
(declare-fun Y3 () Real )
(declare-fun X4 () Real )
(declare-fun Y4 () Real )
(declare-fun X5 () Real )
(declare-fun Y5 () Real )
(declare-fun X6 () Real )
(declare-fun Y6 () Real )
(declare-fun X7 () Real )
(declare-fun Y7 () Real )
(declare-fun X8 () Real )
(declare-fun Y8 () Real )
(declare-fun X9 () Real )
(declare-fun Y9 () Real )
(declare-fun X10 () Real )
(declare-fun Y10 () Real )
(declare-fun X11 () Real )
(declare-fun Y11 () Real )
(declare-fun Z () Real )
(declare-fun k () Real )
(assert (let
(( $goal (>= Z k) ))
(let
((
$phi ( and 
( or ( <= ( + X0 78 ) X1 )  ( <= ( + X1 51 ) X0 )  ( <= ( + Y0 3 ) Y1 )  ( <= ( + Y1 37 ) Y0 )  )
( or ( <= ( + X0 78 ) X2 )  ( <= ( + X2 10 ) X0 )  ( <= ( + Y0 3 ) Y2 )  ( <= ( + Y2 50 ) Y0 )  )
( or ( <= ( + X0 78 ) X3 )  ( <= ( + X3 43 ) X0 )  ( <= ( + Y0 3 ) Y3 )  ( <= ( + Y3 92 ) Y0 )  )
( or ( <= ( + X0 78 ) X4 )  ( <= ( + X4 82 ) X0 )  ( <= ( + Y0 3 ) Y4 )  ( <= ( + Y4 98 ) Y0 )  )
( or ( <= ( + X0 78 ) X5 )  ( <= ( + X5 61 ) X0 )  ( <= ( + Y0 3 ) Y5 )  ( <= ( + Y5 66 ) Y0 )  )
( or ( <= ( + X0 78 ) X6 )  ( <= ( + X6 93 ) X0 )  ( <= ( + Y0 3 ) Y6 )  ( <= ( + Y6 78 ) Y0 )  )
( or ( <= ( + X0 78 ) X7 )  ( <= ( + X7 57 ) X0 )  ( <= ( + Y0 3 ) Y7 )  ( <= ( + Y7 24 ) Y0 )  )
( or ( <= ( + X0 78 ) X8 )  ( <= ( + X8 26 ) X0 )  ( <= ( + Y0 3 ) Y8 )  ( <= ( + Y8 96 ) Y0 )  )
( or ( <= ( + X0 78 ) X9 )  ( <= ( + X9 17 ) X0 )  ( <= ( + Y0 3 ) Y9 )  ( <= ( + Y9 42 ) Y0 )  )
( or ( <= ( + X0 78 ) X10 )  ( <= ( + X10 77 ) X0 )  ( <= ( + Y0 3 ) Y10 )  ( <= ( + Y10 59 ) Y0 )  )
( or ( <= ( + X0 78 ) X11 )  ( <= ( + X11 80 ) X0 )  ( <= ( + Y0 3 ) Y11 )  ( <= ( + Y11 21 ) Y0 )  )
( or ( <= ( + X1 51 ) X2 )  ( <= ( + X2 10 ) X1 )  ( <= ( + Y1 37 ) Y2 )  ( <= ( + Y2 50 ) Y1 )  )
( or ( <= ( + X1 51 ) X3 )  ( <= ( + X3 43 ) X1 )  ( <= ( + Y1 37 ) Y3 )  ( <= ( + Y3 92 ) Y1 )  )
( or ( <= ( + X1 51 ) X4 )  ( <= ( + X4 82 ) X1 )  ( <= ( + Y1 37 ) Y4 )  ( <= ( + Y4 98 ) Y1 )  )
( or ( <= ( + X1 51 ) X5 )  ( <= ( + X5 61 ) X1 )  ( <= ( + Y1 37 ) Y5 )  ( <= ( + Y5 66 ) Y1 )  )
( or ( <= ( + X1 51 ) X6 )  ( <= ( + X6 93 ) X1 )  ( <= ( + Y1 37 ) Y6 )  ( <= ( + Y6 78 ) Y1 )  )
( or ( <= ( + X1 51 ) X7 )  ( <= ( + X7 57 ) X1 )  ( <= ( + Y1 37 ) Y7 )  ( <= ( + Y7 24 ) Y1 )  )
( or ( <= ( + X1 51 ) X8 )  ( <= ( + X8 26 ) X1 )  ( <= ( + Y1 37 ) Y8 )  ( <= ( + Y8 96 ) Y1 )  )
( or ( <= ( + X1 51 ) X9 )  ( <= ( + X9 17 ) X1 )  ( <= ( + Y1 37 ) Y9 )  ( <= ( + Y9 42 ) Y1 )  )
( or ( <= ( + X1 51 ) X10 )  ( <= ( + X10 77 ) X1 )  ( <= ( + Y1 37 ) Y10 )  ( <= ( + Y10 59 ) Y1 )  )
( or ( <= ( + X1 51 ) X11 )  ( <= ( + X11 80 ) X1 )  ( <= ( + Y1 37 ) Y11 )  ( <= ( + Y11 21 ) Y1 )  )
( or ( <= ( + X2 10 ) X3 )  ( <= ( + X3 43 ) X2 )  ( <= ( + Y2 50 ) Y3 )  ( <= ( + Y3 92 ) Y2 )  )
( or ( <= ( + X2 10 ) X4 )  ( <= ( + X4 82 ) X2 )  ( <= ( + Y2 50 ) Y4 )  ( <= ( + Y4 98 ) Y2 )  )
( or ( <= ( + X2 10 ) X5 )  ( <= ( + X5 61 ) X2 )  ( <= ( + Y2 50 ) Y5 )  ( <= ( + Y5 66 ) Y2 )  )
( or ( <= ( + X2 10 ) X6 )  ( <= ( + X6 93 ) X2 )  ( <= ( + Y2 50 ) Y6 )  ( <= ( + Y6 78 ) Y2 )  )
( or ( <= ( + X2 10 ) X7 )  ( <= ( + X7 57 ) X2 )  ( <= ( + Y2 50 ) Y7 )  ( <= ( + Y7 24 ) Y2 )  )
( or ( <= ( + X2 10 ) X8 )  ( <= ( + X8 26 ) X2 )  ( <= ( + Y2 50 ) Y8 )  ( <= ( + Y8 96 ) Y2 )  )
( or ( <= ( + X2 10 ) X9 )  ( <= ( + X9 17 ) X2 )  ( <= ( + Y2 50 ) Y9 )  ( <= ( + Y9 42 ) Y2 )  )
( or ( <= ( + X2 10 ) X10 )  ( <= ( + X10 77 ) X2 )  ( <= ( + Y2 50 ) Y10 )  ( <= ( + Y10 59 ) Y2 )  )
( or ( <= ( + X2 10 ) X11 )  ( <= ( + X11 80 ) X2 )  ( <= ( + Y2 50 ) Y11 )  ( <= ( + Y11 21 ) Y2 )  )
( or ( <= ( + X3 43 ) X4 )  ( <= ( + X4 82 ) X3 )  ( <= ( + Y3 92 ) Y4 )  ( <= ( + Y4 98 ) Y3 )  )
( or ( <= ( + X3 43 ) X5 )  ( <= ( + X5 61 ) X3 )  ( <= ( + Y3 92 ) Y5 )  ( <= ( + Y5 66 ) Y3 )  )
( or ( <= ( + X3 43 ) X6 )  ( <= ( + X6 93 ) X3 )  ( <= ( + Y3 92 ) Y6 )  ( <= ( + Y6 78 ) Y3 )  )
( or ( <= ( + X3 43 ) X7 )  ( <= ( + X7 57 ) X3 )  ( <= ( + Y3 92 ) Y7 )  ( <= ( + Y7 24 ) Y3 )  )
( or ( <= ( + X3 43 ) X8 )  ( <= ( + X8 26 ) X3 )  ( <= ( + Y3 92 ) Y8 )  ( <= ( + Y8 96 ) Y3 )  )
( or ( <= ( + X3 43 ) X9 )  ( <= ( + X9 17 ) X3 )  ( <= ( + Y3 92 ) Y9 )  ( <= ( + Y9 42 ) Y3 )  )
( or ( <= ( + X3 43 ) X10 )  ( <= ( + X10 77 ) X3 )  ( <= ( + Y3 92 ) Y10 )  ( <= ( + Y10 59 ) Y3 )  )
( or ( <= ( + X3 43 ) X11 )  ( <= ( + X11 80 ) X3 )  ( <= ( + Y3 92 ) Y11 )  ( <= ( + Y11 21 ) Y3 )  )
( or ( <= ( + X4 82 ) X5 )  ( <= ( + X5 61 ) X4 )  ( <= ( + Y4 98 ) Y5 )  ( <= ( + Y5 66 ) Y4 )  )
( or ( <= ( + X4 82 ) X6 )  ( <= ( + X6 93 ) X4 )  ( <= ( + Y4 98 ) Y6 )  ( <= ( + Y6 78 ) Y4 )  )
( or ( <= ( + X4 82 ) X7 )  ( <= ( + X7 57 ) X4 )  ( <= ( + Y4 98 ) Y7 )  ( <= ( + Y7 24 ) Y4 )  )
( or ( <= ( + X4 82 ) X8 )  ( <= ( + X8 26 ) X4 )  ( <= ( + Y4 98 ) Y8 )  ( <= ( + Y8 96 ) Y4 )  )
( or ( <= ( + X4 82 ) X9 )  ( <= ( + X9 17 ) X4 )  ( <= ( + Y4 98 ) Y9 )  ( <= ( + Y9 42 ) Y4 )  )
( or ( <= ( + X4 82 ) X10 )  ( <= ( + X10 77 ) X4 )  ( <= ( + Y4 98 ) Y10 )  ( <= ( + Y10 59 ) Y4 )  )
( or ( <= ( + X4 82 ) X11 )  ( <= ( + X11 80 ) X4 )  ( <= ( + Y4 98 ) Y11 )  ( <= ( + Y11 21 ) Y4 )  )
( or ( <= ( + X5 61 ) X6 )  ( <= ( + X6 93 ) X5 )  ( <= ( + Y5 66 ) Y6 )  ( <= ( + Y6 78 ) Y5 )  )
( or ( <= ( + X5 61 ) X7 )  ( <= ( + X7 57 ) X5 )  ( <= ( + Y5 66 ) Y7 )  ( <= ( + Y7 24 ) Y5 )  )
( or ( <= ( + X5 61 ) X8 )  ( <= ( + X8 26 ) X5 )  ( <= ( + Y5 66 ) Y8 )  ( <= ( + Y8 96 ) Y5 )  )
( or ( <= ( + X5 61 ) X9 )  ( <= ( + X9 17 ) X5 )  ( <= ( + Y5 66 ) Y9 )  ( <= ( + Y9 42 ) Y5 )  )
( or ( <= ( + X5 61 ) X10 )  ( <= ( + X10 77 ) X5 )  ( <= ( + Y5 66 ) Y10 )  ( <= ( + Y10 59 ) Y5 )  )
( or ( <= ( + X5 61 ) X11 )  ( <= ( + X11 80 ) X5 )  ( <= ( + Y5 66 ) Y11 )  ( <= ( + Y11 21 ) Y5 )  )
( or ( <= ( + X6 93 ) X7 )  ( <= ( + X7 57 ) X6 )  ( <= ( + Y6 78 ) Y7 )  ( <= ( + Y7 24 ) Y6 )  )
( or ( <= ( + X6 93 ) X8 )  ( <= ( + X8 26 ) X6 )  ( <= ( + Y6 78 ) Y8 )  ( <= ( + Y8 96 ) Y6 )  )
( or ( <= ( + X6 93 ) X9 )  ( <= ( + X9 17 ) X6 )  ( <= ( + Y6 78 ) Y9 )  ( <= ( + Y9 42 ) Y6 )  )
( or ( <= ( + X6 93 ) X10 )  ( <= ( + X10 77 ) X6 )  ( <= ( + Y6 78 ) Y10 )  ( <= ( + Y10 59 ) Y6 )  )
( or ( <= ( + X6 93 ) X11 )  ( <= ( + X11 80 ) X6 )  ( <= ( + Y6 78 ) Y11 )  ( <= ( + Y11 21 ) Y6 )  )
( or ( <= ( + X7 57 ) X8 )  ( <= ( + X8 26 ) X7 )  ( <= ( + Y7 24 ) Y8 )  ( <= ( + Y8 96 ) Y7 )  )
( or ( <= ( + X7 57 ) X9 )  ( <= ( + X9 17 ) X7 )  ( <= ( + Y7 24 ) Y9 )  ( <= ( + Y9 42 ) Y7 )  )
( or ( <= ( + X7 57 ) X10 )  ( <= ( + X10 77 ) X7 )  ( <= ( + Y7 24 ) Y10 )  ( <= ( + Y10 59 ) Y7 )  )
( or ( <= ( + X7 57 ) X11 )  ( <= ( + X11 80 ) X7 )  ( <= ( + Y7 24 ) Y11 )  ( <= ( + Y11 21 ) Y7 )  )
( or ( <= ( + X8 26 ) X9 )  ( <= ( + X9 17 ) X8 )  ( <= ( + Y8 96 ) Y9 )  ( <= ( + Y9 42 ) Y8 )  )
( or ( <= ( + X8 26 ) X10 )  ( <= ( + X10 77 ) X8 )  ( <= ( + Y8 96 ) Y10 )  ( <= ( + Y10 59 ) Y8 )  )
( or ( <= ( + X8 26 ) X11 )  ( <= ( + X11 80 ) X8 )  ( <= ( + Y8 96 ) Y11 )  ( <= ( + Y11 21 ) Y8 )  )
( or ( <= ( + X9 17 ) X10 )  ( <= ( + X10 77 ) X9 )  ( <= ( + Y9 42 ) Y10 )  ( <= ( + Y10 59 ) Y9 )  )
( or ( <= ( + X9 17 ) X11 )  ( <= ( + X11 80 ) X9 )  ( <= ( + Y9 42 ) Y11 )  ( <= ( + Y11 21 ) Y9 )  )
( or ( <= ( + X10 77 ) X11 )  ( <= ( + X11 80 ) X10 )  ( <= ( + Y10 59 ) Y11 )  ( <= ( + Y11 21 ) Y10 )  )
( >= X0 0)
( <= ( + X0 78) Z)
( >= Y0 0)
( <= ( + Y0 3 ) 100)
( >= X1 0)
( <= ( + X1 51) Z)
( >= Y1 0)
( <= ( + Y1 37 ) 100)
( >= X2 0)
( <= ( + X2 10) Z)
( >= Y2 0)
( <= ( + Y2 50 ) 100)
( >= X3 0)
( <= ( + X3 43) Z)
( >= Y3 0)
( <= ( + Y3 92 ) 100)
( >= X4 0)
( <= ( + X4 82) Z)
( >= Y4 0)
( <= ( + Y4 98 ) 100)
( >= X5 0)
( <= ( + X5 61) Z)
( >= Y5 0)
( <= ( + Y5 66 ) 100)
( >= X6 0)
( <= ( + X6 93) Z)
( >= Y6 0)
( <= ( + Y6 78 ) 100)
( >= X7 0)
( <= ( + X7 57) Z)
( >= Y7 0)
( <= ( + Y7 24 ) 100)
( >= X8 0)
( <= ( + X8 26) Z)
( >= Y8 0)
( <= ( + Y8 96 ) 100)
( >= X9 0)
( <= ( + X9 17) Z)
( >= Y9 0)
( <= ( + Y9 42 ) 100)
( >= X10 0)
( <= ( + X10 77) Z)
( >= Y10 0)
( <= ( + Y10 59 ) 100)
( >= X11 0)
( <= ( + X11 80) Z)
( >= Y11 0)
( <= ( + Y11 21 ) 100)
) )
)(=> $phi $goal))))